GLPSOL--GLPK LP/MIP Solver 5.0
Parameter(s) specified in the command line:
 --lp ../modeles/4_214.lp --log 4_214.log
Reading problem data from '../modeles/4_214.lp'...
873 rows, 1720 columns, 6004 non-zeros
856 integer variables, all of which are binary
2603 lines were read
GLPK Integer Optimizer 5.0
873 rows, 1720 columns, 6004 non-zeros
856 integer variables, all of which are binary
Preprocessing...
840 constraint coefficient(s) were reduced
873 rows, 1716 columns, 6000 non-zeros
856 integer variables, all of which are binary
Scaling...
 A: min|aij| =  3.494e-04  max|aij| =  4.000e+00  ratio =  1.145e+04
GM: min|aij| =  9.667e-02  max|aij| =  1.034e+01  ratio =  1.070e+02
EQ: min|aij| =  9.346e-03  max|aij| =  1.000e+00  ratio =  1.070e+02
2N: min|aij| =  7.812e-03  max|aij| =  1.745e+00  ratio =  2.234e+02
Constructing initial basis...
Size of triangular part is 873
Solving LP relaxation...
GLPK Simplex Optimizer 5.0
873 rows, 1716 columns, 6000 non-zeros
      0: obj =   8.000000000e+00 inf =   1.950e+01 (9)
     59: obj =   3.931987944e-01 inf =   0.000e+00 (0)
*   235: obj =  -1.999735496e+00 inf =   1.520e-15 (0)
OPTIMAL LP SOLUTION FOUND
Integer optimization begins...
Long-step dual simplex will be used
+   235: mip =     not found yet >=              -inf        (1; 0)
+   240: >>>>>  -1.999735496e+00 >=  -1.999735496e+00 < 0.1% (4; 0)
+   240: mip =  -1.999735496e+00 >=     tree is empty   0.0% (0; 7)
INTEGER OPTIMAL SOLUTION FOUND
Time used:   0.0 secs
Memory used: 2.5 Mb (2666300 bytes)
